benchmark/results/graph__10-1000-0.10-02_18/graph__10-1000-0.10-02_18_QuintonOs_Benders_primal_sub.lp
\ This file has been generated by DOcplex
\ ENCODING=ISO-8859-1
\Problem name: Quinton Bounded Benders_primal_sub

Maximize
 obj: tau
Subject To
 c1: tau <= 0.000898472597
 c2: y_a0_proc_0 + y_a0_proc_1 - tau = 0
 c3: y_a0_proc_0 <= 0
 c4: y_a0_proc_1 <= 1
 c5: tau <= 0.001934235977
 c6: y_a1_proc_0 - tau = 0
 c7: y_a1_proc_0 <= 1
 c8: tau <= 0.001831501832
 c9: y_a2_proc_0 + y_a2_proc_1 - tau = 0
 c10: y_a2_proc_0 <= 0
 c11: y_a2_proc_1 <= 1
 c12: tau <= 0.001117318436
 c13: y_a3_proc_0 + y_a3_proc_1 - tau = 0
 c14: y_a3_proc_0 <= 0
 c15: y_a3_proc_1 <= 1
 c16: tau <= 0.000977517107
 c17: y_a4_proc_0 + y_a4_proc_1 - tau = 0
 c18: y_a4_proc_0 <= 1
 c19: y_a4_proc_1 <= 0
 c20: tau <= 0.001035196687
 c21: y_a5_proc_1 - tau = 0
 c22: y_a5_proc_1 <= 1
 c23: tau <= 0.000948766603
 c24: y_a6_proc_1 - tau = 0
 c25: y_a6_proc_1 <= 1
 c26: tau <= 0.000875656743
 c27: y_a7_proc_0 - tau = 0
 c28: y_a7_proc_0 <= 1
 c29: tau <= 0.000919963201
 c30: y_a8_proc_0 + y_a8_proc_1 - tau = 0
 c31: y_a8_proc_0 <= 1
 c32: y_a8_proc_1 <= 0
 c33: tau <= 0.001351351351
 c34: y_a9_proc_0 + y_a9_proc_1 - tau = 0
 c35: y_a9_proc_0 <= 1
 c36: y_a9_proc_1 <= 0
 c37: u_a0 - u_a1 - 517 y_a1_proc_0 >= -1
 c38: u_a2 - u_a0 - 1270 y_a0_proc_0 - 1113 y_a0_proc_1 >= -1
 c39: u_a1 - u_a3 - 1230 y_a3_proc_0 - 895 y_a3_proc_1 >= 0
 c40: u_a3 - u_a4 - 1023 y_a4_proc_0 - 1102 y_a4_proc_1 >= -1
 c41: u_a2 - u_a5 - 966 y_a5_proc_1 >= -1
 c42: u_a6 - u_a2 - 865 y_a2_proc_0 - 546 y_a2_proc_1 >= 0
 c43: u_a5 - u_a7 - 1142 y_a7_proc_0 >= 0
 c44: u_a8 - u_a0 - 1270 y_a0_proc_0 - 1113 y_a0_proc_1 >= -1
 c45: u_a2 - u_a9 - 740 y_a9_proc_0 - 862 y_a9_proc_1 >= 0
 c46: u_a7 - u_a4 - 1023 y_a4_proc_0 - 1102 y_a4_proc_1 >= 0
 c47: u_a3 - u_a5 - 966 y_a5_proc_1 >= 0
 c48: u_a5 - u_a4 - 1023 y_a4_proc_0 - 1102 y_a4_proc_1 >= 0
 c49: u_a5 - u_a2 - 865 y_a2_proc_0 - 546 y_a2_proc_1 >= 0
 c50: u_a9 - u_a8 - 1087 y_a8_proc_0 - 1296 y_a8_proc_1 >= 0
 c51: u_a0 - u_a6 - 1054 y_a6_proc_1 >= 0
 c52: u_a1 - u_a0 - 1270 y_a0_proc_0 >= -1285
 c53: u_a0 - u_a1 - 517 y_a1_proc_0 >= -1308
 c54: u_a2 - u_a0 - 1113 y_a0_proc_1 >= -1
 c55: u_a2 - u_a0 - 1270 y_a0_proc_0 >= -2593
 c56: u_a0 - u_a2 - 546 y_a2_proc_1 >= 0
 c57: u_a0 - u_a2 - 865 y_a2_proc_0 >= -2592
 c58: u_a3 - u_a0 - 1113 y_a0_proc_1 >= 0
 c59: u_a3 - u_a0 - 1270 y_a0_proc_0 >= -2592
 c60: u_a0 - u_a3 - 895 y_a3_proc_1 >= -1
 c61: u_a0 - u_a3 - 1230 y_a3_proc_0 >= -2593
 c62: u_a4 - u_a0 - 1113 y_a0_proc_1 >= -1308
 c63: u_a4 - u_a0 - 1270 y_a0_proc_0 >= -1308
 c64: u_a0 - u_a4 - 1102 y_a4_proc_1 >= -1285
 c65: u_a0 - u_a4 - 1023 y_a4_proc_0 >= -1285
 c66: u_a5 - u_a0 - 1113 y_a0_proc_1 >= 0
 c67: u_a0 - u_a5 - 966 y_a5_proc_1 >= -1
 c68: u_a6 - u_a0 - 1113 y_a0_proc_1 >= -1
 c69: u_a0 - u_a6 - 1054 y_a6_proc_1 >= 0
 c70: u_a7 - u_a0 - 1270 y_a0_proc_0 >= -1285
 c71: u_a0 - u_a7 - 1142 y_a7_proc_0 >= -1308
 c72: u_a8 - u_a0 - 1113 y_a0_proc_1 >= -1308
 c73: u_a8 - u_a0 - 1270 y_a0_proc_0 >= -1308
 c74: u_a0 - u_a8 - 1296 y_a8_proc_1 >= -1285
 c75: u_a0 - u_a8 - 1087 y_a8_proc_0 >= -1285
 c76: u_a9 - u_a0 - 1113 y_a0_proc_1 >= -1308
 c77: u_a9 - u_a0 - 1270 y_a0_proc_0 >= -1308
 c78: u_a0 - u_a9 - 862 y_a9_proc_1 >= -1285
 c79: u_a0 - u_a9 - 740 y_a9_proc_0 >= -1285
 c80: u_a2 - u_a1 - 517 y_a1_proc_0 >= -1285
 c81: u_a1 - u_a2 - 865 y_a2_proc_0 >= -1308
 c82: u_a3 - u_a1 - 517 y_a1_proc_0 >= -1308
 c83: u_a1 - u_a3 - 1230 y_a3_proc_0 >= -1285
 c84: u_a4 - u_a1 - 517 y_a1_proc_0 >= -11
 c85: u_a1 - u_a4 - 1023 y_a4_proc_0 >= 10
 c86: u_a7 - u_a1 - 517 y_a1_proc_0 >= -11
 c87: u_a1 - u_a7 - 1142 y_a7_proc_0 >= 10
 c88: u_a8 - u_a1 - 517 y_a1_proc_0 >= -2
 c89: u_a1 - u_a8 - 1087 y_a8_proc_0 >= 1
 c90: u_a9 - u_a1 - 517 y_a1_proc_0 >= -2
 c91: u_a1 - u_a9 - 740 y_a9_proc_0 >= 1
 c92: u_a3 - u_a2 - 546 y_a2_proc_1 >= 0
 c93: u_a3 - u_a2 - 865 y_a2_proc_0 >= -2592
 c94: u_a2 - u_a3 - 895 y_a3_proc_1 >= -1
 c95: u_a2 - u_a3 - 1230 y_a3_proc_0 >= -2593
 c96: u_a4 - u_a2 - 546 y_a2_proc_1 >= -1308
 c97: u_a4 - u_a2 - 865 y_a2_proc_0 >= -1308
 c98: u_a2 - u_a4 - 1102 y_a4_proc_1 >= -1285
 c99: u_a2 - u_a4 - 1023 y_a4_proc_0 >= -1285
 c100: u_a5 - u_a2 - 546 y_a2_proc_1 >= 0
 c101: u_a2 - u_a5 - 966 y_a5_proc_1 >= -1
 c102: u_a6 - u_a2 - 546 y_a2_proc_1 >= 0
 c103: u_a2 - u_a6 - 1054 y_a6_proc_1 >= -1
 c104: u_a7 - u_a2 - 865 y_a2_proc_0 >= -1285
 c105: u_a2 - u_a7 - 1142 y_a7_proc_0 >= -1308
 c106: u_a8 - u_a2 - 546 y_a2_proc_1 >= -1308
 c107: u_a8 - u_a2 - 865 y_a2_proc_0 >= -1308
 c108: u_a2 - u_a8 - 1296 y_a8_proc_1 >= -1285
 c109: u_a2 - u_a8 - 1087 y_a8_proc_0 >= -1285
 c110: u_a9 - u_a2 - 546 y_a2_proc_1 >= -1308
 c111: u_a9 - u_a2 - 865 y_a2_proc_0 >= -1308
 c112: u_a2 - u_a9 - 862 y_a9_proc_1 >= -1285
 c113: u_a2 - u_a9 - 740 y_a9_proc_0 >= -1285
 c114: u_a4 - u_a3 - 895 y_a3_proc_1 >= -1285
 c115: u_a4 - u_a3 - 1230 y_a3_proc_0 >= -1285
 c116: u_a3 - u_a4 - 1102 y_a4_proc_1 >= -1308
 c117: u_a3 - u_a4 - 1023 y_a4_proc_0 >= -1308
 c118: u_a5 - u_a3 - 895 y_a3_proc_1 >= -1
 c119: u_a3 - u_a5 - 966 y_a5_proc_1 >= 0
 c120: u_a6 - u_a3 - 895 y_a3_proc_1 >= -1
 c121: u_a3 - u_a6 - 1054 y_a6_proc_1 >= 0
 c122: u_a7 - u_a3 - 1230 y_a3_proc_0 >= -1308
 c123: u_a3 - u_a7 - 1142 y_a7_proc_0 >= -1285
 c124: u_a8 - u_a3 - 895 y_a3_proc_1 >= -1308
 c125: u_a8 - u_a3 - 1230 y_a3_proc_0 >= -1308
 c126: u_a3 - u_a8 - 1296 y_a8_proc_1 >= -1285
 c127: u_a3 - u_a8 - 1087 y_a8_proc_0 >= -1285
 c128: u_a9 - u_a3 - 895 y_a3_proc_1 >= -1308
 c129: u_a9 - u_a3 - 1230 y_a3_proc_0 >= -1308
 c130: u_a3 - u_a9 - 862 y_a9_proc_1 >= -1285
 c131: u_a3 - u_a9 - 740 y_a9_proc_0 >= -1285
 c132: u_a5 - u_a4 - 1102 y_a4_proc_1 >= -1308
 c133: u_a4 - u_a5 - 966 y_a5_proc_1 >= -1285
 c134: u_a6 - u_a4 - 1102 y_a4_proc_1 >= -1285
 c135: u_a4 - u_a6 - 1054 y_a6_proc_1 >= -1308
 c136: u_a7 - u_a4 - 1023 y_a4_proc_0 >= 0
 c137: u_a4 - u_a7 - 1142 y_a7_proc_0 >= -1
 c138: u_a8 - u_a4 - 1102 y_a4_proc_1 >= -2583
 c139: u_a8 - u_a4 - 1023 y_a4_proc_0 >= 9
 c140: u_a4 - u_a8 - 1296 y_a8_proc_1 >= -2602
 c141: u_a4 - u_a8 - 1087 y_a8_proc_0 >= -10
 c142: u_a9 - u_a4 - 1102 y_a4_proc_1 >= -2583
 c143: u_a9 - u_a4 - 1023 y_a4_proc_0 >= 9
 c144: u_a4 - u_a9 - 862 y_a9_proc_1 >= -2602
 c145: u_a4 - u_a9 - 740 y_a9_proc_0 >= -10
 c146: u_a6 - u_a5 - 966 y_a5_proc_1 >= -1
 c147: u_a5 - u_a6 - 1054 y_a6_proc_1 >= 0
 c148: u_a8 - u_a5 - 966 y_a5_proc_1 >= -1308
 c149: u_a5 - u_a8 - 1296 y_a8_proc_1 >= -1285
 c150: u_a9 - u_a5 - 966 y_a5_proc_1 >= -1285
 c151: u_a5 - u_a9 - 862 y_a9_proc_1 >= -1308
 c152: u_a8 - u_a6 - 1054 y_a6_proc_1 >= -1285
 c153: u_a6 - u_a8 - 1296 y_a8_proc_1 >= -1308
 c154: u_a9 - u_a6 - 1054 y_a6_proc_1 >= -1308
 c155: u_a6 - u_a9 - 862 y_a9_proc_1 >= -1285
 c156: u_a8 - u_a7 - 1142 y_a7_proc_0 >= 9
 c157: u_a7 - u_a8 - 1087 y_a8_proc_0 >= -10
 c158: u_a9 - u_a7 - 1142 y_a7_proc_0 >= 9
 c159: u_a7 - u_a9 - 740 y_a9_proc_0 >= -10
 c160: u_a9 - u_a8 - 1296 y_a8_proc_1 >= -2592
 c161: u_a9 - u_a8 - 1087 y_a8_proc_0 >= 0
 c162: u_a8 - u_a9 - 862 y_a9_proc_1 >= -2593
 c163: u_a8 - u_a9 - 740 y_a9_proc_0 >= -1

Bounds
End
