benchmark/results/graph__10-1000-0.10-02_18/graph__10-1000-0.10-02_18_QuintonOs_Benders_primal_sub.txt
solution for: Quinton Bounded Benders_primal_sub
objective: 0.000218627
status: OPTIMAL_SOLUTION(2)
u_a0=10.237
u_a1=10.887
u_a2=9.887
u_a3=10.691
u_a5=10.480
u_a6=10.006
u_a7=0.238
u_a8=9.488
u_a9=9.725
tau=0.000
y_a0_proc_1=0.000
y_a1_proc_0=0.000
y_a2_proc_1=0.000
y_a3_proc_1=0.000
y_a4_proc_0=0.000
y_a5_proc_1=0.000
y_a6_proc_1=0.000
y_a7_proc_0=0.000
y_a8_proc_0=0.000
y_a9_proc_0=0.000
